c turning on binary mode checking
c parsing input formula with 259840 variables and 1039924 clauses
c finished parsing, read 3112169 bytes from proof file
c detected empty clause; start verification via backward checking
c 4611 of 1039924 clauses in core                            
c 1441 of 124490 lemmas in core using 46930 resolution steps
c 0 RAT lemmas in core; 190 redundant literals in core lemmas
s VERIFIED
c verification time: 1.397 seconds
